language ESSENCE' 1.0
$ loaded file: carseqdata/csplib-instance-5
letting numcars=100
letting numclasses=26
letting numoptions=5
letting optMax=[1, 2, 1, 2, 1]
letting windowSize=[2, 3, 3, 5, 5]
letting numberPerClass=[10, 2, 8, 8, 6, 11, 3, 2, 7, 2, 4, 7, 1, 3, 4, 5, 2, 1, 2, 3, 2, 1, 3, 1, 1, 1]
letting optionsRequired=[[1, 0, 0, 0, 0], [0, 0, 0, 0, 1], [0, 1, 0, 1, 0], [0, 0, 0, 1, 0], [0, 1, 1, 0, 0], [0, 1, 0, 0, 0], [0, 0, 1, 0, 0], [0, 0, 1, 1, 0], [1, 1, 0, 0, 0], [1, 0, 0, 1, 1], [1, 0, 1, 0, 0], [1, 0, 0, 1, 0], [1, 1, 1, 0, 1], [0, 1, 1, 1, 0], [0, 1, 0, 0, 1], [1, 1, 1, 0, 0], [1, 1, 0, 0, 1], [1, 0, 1, 1, 1], [1, 0, 1, 1, 0], [1, 0, 0, 0, 1], [0, 1, 1, 0, 1], [0, 1, 0, 1, 1], [1, 1, 0, 1, 0], [0, 0, 1, 1, 1], [1, 1, 1, 1, 1], [1, 1, 1, 1, 0]]
